
Gurobi 13.0.2 (win64) logging started Thu Jul 23 04:57:31 2026

Set parameter LogFile to value "E:\codes\ExactEBRP\results\gf_cplex_equivalent_gurobi_replica_round28\runs\stage1__moderate_seed4301__c3_replica__300s\external\native_logs\R.0.0.1.1.1.0.1.0_lp.gurobi.log"
Gurobi Optimizer version 13.0.2 build v13.0.2rc1 (win64 - Windows 10.0 (19045.2))

CPU model: 12th Gen Intel(R) Core(TM) i7-12700KF, instruction set [SSE2|AVX|AVX2]
Thread count: 12 physical cores, 20 logical processors, using up to 1 threads

Non-default parameters:
TimeLimit  1.2645281509999998e+02
MIPGap  0
MIPGapAbs  0
LogToConsole  0
Threads  1

Optimize a model with 11911 rows, 3376 columns and 67353 nonzeros (Min)
Model fingerprint: 0xdef694e3
Model has 21 linear objective coefficients
Coefficient statistics:
  Matrix range     [4e-03, 2e+04]
  Objective range  [8e-03, 1e+00]
  Bounds range     [4e-03, 5e+01]
  RHS range        [4e-03, 5e+04]

Presolve removed 565 rows and 104 columns
Presolve time: 0.03s
Presolved: 11346 rows, 3444 columns, 65202 nonzeros

Iteration    Objective       Primal Inf.    Dual Inf.      Time
       0    4.3676835e-03   1.211095e+02   0.000000e+00      0s

Extra simplex iterations after uncrush: 1
    1517    6.2903830e-03   0.000000e+00   0.000000e+00      0s

Solved in 1517 iterations and 0.13 seconds (0.38 work units)
Optimal objective  6.290383015e-03

User-callback calls 1668, time in user-callback 0.00 sec
